p tw 50 57
1 2
2 13
3 4
4 5
4 8
5 6
6 7
7 46
8 9
9 10
10 11
10 16
11 12
12 14
13 24
14 15
15 46
16 17
17 18
18 19
18 23
19 20
20 21
21 22
22 46
23 25
24 35
25 26
26 27
27 28
28 29
28 32
29 30
30 31
30 32
31 32
32 33
33 34
34 36
34 46
35 46
36 37
37 38
37 46
38 39
39 46
40 41
41 42
42 43
43 44
44 45
46 47
47 48
48 49
49 50
49 40
50 3
